instances/p2/p2_6_13-0.dzn
Alphabet = {A,C,G,T};
ns = 6;
nc = 13;
neighbours = [| I(G),Null,Null,Null,Null,Null,Null,Null,Null,Null,Null,Null,Null | I(C),I(G),I(G),I(A),I(G),I(A),I(C),I(A),I(A),I(C),Null,Null,Null | I(C),I(T),I(G),I(G),I(C),I(A),I(A),I(G),I(C),I(T),Null,Null,Null | I(G),I(G),I(C),I(A),I(T),I(G),I(A),I(A),Null,Null,Null,Null,Null | I(T),I(G),I(G),I(C),I(G),I(A),Null,Null,Null,Null,Null,Null,Null | I(A),I(G),I(T),I(T),I(C),I(G),I(C),I(C),I(C),I(A),I(G),I(C),I(C) |];
